p cnf 53 120
a 1 2 3 4 5 6 7 8 9 10 11 0
e 12 13 14 15 16 17 18 19 20 21 22 23 24 25 26 27 28 29 30 31 32 33 34 35 36 37 38 39 40 41 42 43 44 45 46 47 48 49 50 51 52 0
-1 -20 0
7 -20 0
1 20 -7 0
-6 -21 0
20 -21 0
6 21 -20 0
22 -6 0
22 -21 0
6 21 -22 0
-5 -22 -23 0
5 22 -23 0
22 23 -5 0
5 23 -22 0
-2 -24 0
5 -24 0
2 24 -5 0
-9 -25 0
24 -25 0
9 25 -24 0
26 -9 0
26 -25 0
9 25 -26 0
-8 -26 -27 0
8 26 -27 0
26 27 -8 0
8 27 -26 0
-3 -28 0
8 -28 0
3 28 -8 0
-11 -29 0
28 -29 0
11 29 -28 0
30 -11 0
30 -29 0
11 29 -30 0
-10 -30 -31 0
10 30 -31 0
30 31 -10 0
10 31 -30 0
-1 -32 0
-2 -32 0
-3 -32 0
-4 -32 0
-23 -32 0
-27 -32 0
-31 -32 0
1 2 3 4 23 27 31 32 0
-12 -33 0
17 -33 0
12 33 -17 0
-16 -34 0
33 -34 0
16 34 -33 0
35 -16 0
35 -34 0
16 34 -35 0
-15 -35 -36 0
15 35 -36 0
35 36 -15 0
15 36 -35 0
-13 -37 0
15 -37 0
13 37 -15 0
-19 -38 0
37 -38 0
19 38 -37 0
39 -19 0
39 -38 0
19 38 -39 0
-18 -39 -40 0
18 39 -40 0
39 40 -18 0
18 40 -39 0
-12 -41 0
-13 -41 0
-14 -41 0
-36 -41 0
-40 -41 0
12 13 14 36 40 41 0
-4 -12 -42 0
4 12 -42 0
12 42 -4 0
4 42 -12 0
-10 -17 -43 0
10 17 -43 0
17 43 -10 0
10 43 -17 0
-42 -44 0
-43 -44 0
42 43 44 0
-4 -13 -45 0
4 13 -45 0
13 45 -4 0
4 45 -13 0
-10 -15 -46 0
10 15 -46 0
15 46 -10 0
10 46 -15 0
-45 -47 0
-46 -47 0
45 46 47 0
-4 -14 -48 0
4 14 -48 0
14 48 -4 0
4 48 -14 0
-10 -18 -49 0
10 18 -49 0
18 49 -10 0
10 49 -18 0
-48 -50 0
-49 -50 0
48 49 50 0
51 -44 0
51 -47 0
51 -50 0
44 47 50 -51 0
41 -52 0
51 -52 0
52 -41 -51 0
52 -32 0
